NAME : cgl_43.4899.tour
COMMENT : Length = 4899
COMMENT : Found by LKH-3 [Keld Helsgaun] Fri Nov  8 17:38:18 2024
TYPE : TOUR
DIMENSION : 44
TOUR_SECTION
26
21
27
15
30
29
34
36
35
22
32
23
19
33
2
37
1
38
39
41
42
40
44
11
13
10
3
5
8
7
9
4
6
12
14
43
17
16
24
28
31
25
18
20
-1
EOF
